language ESSENCE' 1.0
letting n be 5
letting squareType be [
[0,0,2,0,0],
[0,0,0,0,0],
[0,1,1,1,0],
[0,0,1,0,0],
[0,0,2,0,0]]

letting clues be [
[0,0,3,0,0],
[0,0,0,0,0],
[0,0,0,0,0],
[0,0,0,0,0],
[0,0,1,0,0]]

letting auxVectorCols be [0, 1, 0, 1, 0]
letting auxVectorRows be [1, 0, 1, 1, 1]
letting blockCounterCol be [0, 1, 4, 1, 0]
letting blockCounterRow be [1, 0, 3, 1, 1]
